NAME : XML100_3164_17
DIMENSION : 101
NB_CLUSTERS : 28
CLUSTERING_ALG : DBSCAN
CLUSTERING_PARAMS : eps(54), minSamples(3)
CLUSTERS
1 0
2 2 3 5 19 21 61 68 76 82 99
3 4 11 26 30 43 51 58
4 41 49 57 63 67
5 46 54 97
6 52 74 93
7 72 75 84 98
8 35 81 88 94
9 1 36 53 73 85
10 10 13 20 23 25 44 50 55 79 100
11 33 78
12 16 27 56 62
13 7 29 37 59 77
14 15 64
15 34 70
16 6 47
17 65 89
18 28 71 91
19 24 31
20 8 42 96
21 38 48
22 12 40
23 18 45
24 9 32 39 86 90 92
25 17 83
26 22 60 80 87
27 66 95
28 14 69
EOF